882732
76, 88, 50, 83, 15, 16, 82, 58, 61, 67, 35, 42, 97, 27, 2, 3, 64, 5, 89, 85, 8, 53, 91, 44, 72, 55, 36, 99, 68, 80, 37, 48, 1, 74, 70, 32, 13, 63, 31, 60, 62, 93, 49, 10, 56, 75, 6, 69, 41, 18, 77, 96, 30, 20, 21, 33, 9, 57, 47, 95, 25, 51, 78, 29, 79, 40, 94, 17, 26, 12, 19, 43, 52, 65, 54, 98, 11, 23, 28, 46, 34, 71, 90, 59, 24, 22, 84, 73, 92, 39, 14, 7, 66, 4, 81, 86, 45, 87, 38
